----- Emissions for Oslo CTM3 -----------------------------------------------
Lists the emissions used in monthly emission tables. In addition there are
some hard coded emissions, which you define by setting the following flags.
They are hard coded because they have their own arrays, and do not use the
emission arrays E2DS and E3DS, and may be updated more often.
--- IMPORTANT!!! ------------------------------------------------------------
Nothing special yet.
--- Aircraft emission data --------------------------------------------------
  AirScen CEDS2021fix 2015     #NONE/REACT4C_5a/Quantify_MA8/TradeOff_1e
  AirEmisPath '/cluster/projects/nn9188k/OsloCTM3/EMIS/CEDS0521_AircraftFix/'
--- Lightning emission data -------------------------------------------------
  1       No. of species with lightning sources; emissions in Tg/yr
  'NO'       14.0D0   5.0000D+00  0
-2D-- 2D emissions ----------------------------------------------------------
filename / description  (See detailed description below)
  ID     SCALE       RES MONTH YEAR  CAT TYPE UNIT DIURN VERT DATASET_NAME SCENYEAR
    SPECIES SCALING ('xxx' to close dataset)


'/cluster/projects/nn9188k/OsloCTM3/EMIS/GAINS_LRTAP_v2_1/LRTAP_Baseline_v5_NOx_2040_CTM.nc'
  401    1.0000d+00  ZP1   99  9999  AGR   2    0    0    0   'AGR'  2040
    NO 0.62608694d0   # Convert from NO2 to NO: 30/46 * 0.96
   NO2 0.04d0         # 0.04 as NO2
    xxx 0 To close this data set

'/cluster/projects/nn9188k/OsloCTM3/EMIS/GAINS_LRTAP_v2_1/LRTAP_Baseline_v5_NOx_2040_CTM.nc'
  401    1.0000d+00  ZP1   99  9999  ENE   2    0    0    0   'ENE'  2040
    NO 0.62608694d0   # Convert from NO2 to NO: 30/46 * 0.96
   NO2 0.04d0         # 0.04 as NO2
    xxx 0 To close this data set

'/cluster/projects/nn9188k/OsloCTM3/EMIS/GAINS_LRTAP_v2_1/LRTAP_Baseline_v5_NOx_2040_CTM.nc'
  401    1.0000d+00  ZP1   99  9999  IND   2    0    0    0   'IND'  2040
    NO 0.62608694d0   # Convert from NO2 to NO: 30/46 * 0.96
   NO2 0.04d0         # 0.04 as NO2
    xxx 0 To close this data set

'/cluster/projects/nn9188k/OsloCTM3/EMIS/GAINS_LRTAP_v2_1/LRTAP_Baseline_v5_NOx_2040_CTM.nc'
  401    1.0000d+00  ZP1   99  9999  TRA   2    0    0    0   'TRA'  2040
    NO 0.62608694d0   # Convert from NO2 to NO: 30/46 * 0.96
   NO2 0.04d0         # 0.04 as NO2
    xxx 0 To close this data set 

'/cluster/projects/nn9188k/OsloCTM3/EMIS/GAINS_LRTAP_v2_1/LRTAP_Baseline_v5_NOx_2040_CTM.nc'
  401    1.0000d+00  ZP1   99  9999  RCO   2    0    0    0   'RCO'  2040
    NO 0.62608694d0   # Convert from NO2 to NO: 30/46 * 0.96
   NO2 0.04d0         # 0.04 as NO2
    xxx 0 To close this data set

'/cluster/projects/nn9188k/OsloCTM3/EMIS/GAINS_LRTAP_v2_1/LRTAP_Baseline_v5_NOx_2040_CTM.nc'
  401    1.0000d+00  ZP1   99  9999  WAS   2    0    0    0   'WAS'  2040
    NO 0.62608694d0   # Convert from NO2 to NO: 30/46 * 0.96
   NO2 0.04d0         # 0.04 as NO2
    xxx 0 To close this data set

'/cluster/projects/nn9188k/OsloCTM3/EMIS/GAINS_LRTAP_v2_1/LRTAP_Baseline_v5_NOx_2040_CTM.nc'
  401    1.0000d+00  ZP1   99  9999  SHI   2    0    0    0   'SHI'  2040
    NO 0.62608694d0   # Convert from NO2 to NO: 30/46 * 0.96
   NO2 0.04d0         # 0.04 as NO2
    xxx 0 To close this data set





'/cluster/projects/nn9188k/OsloCTM3/EMIS/GAINS_LRTAP_v2_1/LRTAP_Baseline_v5_CO_2040_CTM.nc'
  401    1.0000d+00  ZP1   99  9999  ENE   2    0    0    0   'ENE'  2040
    CO 1.d0
    xxx 0 To close this data set

'/cluster/projects/nn9188k/OsloCTM3/EMIS/GAINS_LRTAP_v2_1/LRTAP_Baseline_v5_CO_2040_CTM.nc'
  401    1.0000d+00  ZP1   99  9999  IND   2    0    0    0   'IND'  2040
    CO 1.d0
    xxx 0 To close this data set

'/cluster/projects/nn9188k/OsloCTM3/EMIS/GAINS_LRTAP_v2_1/LRTAP_Baseline_v5_CO_2040_CTM.nc'
  401    1.0000d+00  ZP1   99  9999  TRA   2    0    0    0   'TRA'  2040
    CO 1.d0
    xxx 0 To close this data set

'/cluster/projects/nn9188k/OsloCTM3/EMIS/GAINS_LRTAP_v2_1/LRTAP_Baseline_v5_CO_2040_CTM.nc'
  401    1.0000d+00  ZP1   99  9999  RCO   2    0    0    0   'RCO'  2040
    CO 1.d0
    xxx 0 To close this data set

'/cluster/projects/nn9188k/OsloCTM3/EMIS/GAINS_LRTAP_v2_1/LRTAP_Baseline_v5_CO_2040_CTM.nc'
  401    1.0000d+00  ZP1   99  9999  WAS   2    0    0    0   'WAS'  2040
    CO 1.d0
    xxx 0 To close this data set

'/cluster/projects/nn9188k/OsloCTM3/EMIS/GAINS_LRTAP_v2_1/LRTAP_Baseline_v5_CO_2040_CTM.nc'
  401    1.0000d+00  ZP1   99  9999  SHI   2    0    0    0   'SHI'  2040
    CO 1.d0
    xxx 0 To close this data set




'/cluster/projects/nn9188k/OsloCTM3/EMIS/GAINS_LRTAP_v2_1/LRTAP_Baseline_v5_SO2_2040_CTM.nc'
  401    1.0000d+00  ZP1   99  9999  ENE   2    0    0    0   'ENE'  2040
    SO2 0.975d0      # 97.5% as SO2, 2.5% as SO4 # Indata is kg(SO2)
    SO4 0.0375d0     # 0.025 * 96/64
    xxx 0 To close this data set

'/cluster/projects/nn9188k/OsloCTM3/EMIS/GAINS_LRTAP_v2_1/LRTAP_Baseline_v5_SO2_2040_CTM.nc'
  401    1.0000d+00  ZP1   99  9999  IND   2    0    0    0   'IND'  2040
    SO2 0.975d0      # 97.5% as SO2, 2.5% as SO4 # Indata is kg(SO2)
    SO4 0.0375d0     # 0.025 * 96/64
    xxx 0 To close this data set

'/cluster/projects/nn9188k/OsloCTM3/EMIS/GAINS_LRTAP_v2_1/LRTAP_Baseline_v5_SO2_2040_CTM.nc'
  401    1.0000d+00  ZP1   99  9999  TRA   2    0    0    0   'TRA'  2040
    SO2 0.975d0      # 97.5% as SO2, 2.5% as SO4 # Indata is kg(SO2)
    SO4 0.0375d0     # 0.025 * 96/64
    xxx 0 To close this data set

'/cluster/projects/nn9188k/OsloCTM3/EMIS/GAINS_LRTAP_v2_1/LRTAP_Baseline_v5_SO2_2040_CTM.nc'
  401    1.0000d+00  ZP1   99  9999  RCO   2    0    0    0   'RCO'  2040
    SO2 0.975d0      # 97.5% as SO2, 2.5% as SO4 # Indata is kg(SO2)
    SO4 0.0375d0     # 0.025 * 96/64
    xxx 0 To close this data set

'/cluster/projects/nn9188k/OsloCTM3/EMIS/GAINS_LRTAP_v2_1/LRTAP_Baseline_v5_SO2_2040_CTM.nc'
  401    1.0000d+00  ZP1   99  9999  WAS   2    0    0    0   'WAS'  2040
    SO2 0.975d0      # 97.5% as SO2, 2.5% as SO4 # Indata is kg(SO2)
    SO4 0.0375d0     # 0.025 * 96/64
    xxx 0 To close this data set

'/cluster/projects/nn9188k/OsloCTM3/EMIS/GAINS_LRTAP_v2_1/LRTAP_Baseline_v5_SO2_2040_CTM.nc'
  401    1.0000d+00  ZP1   99  9999  SHI   2    0    0    0   'SHI'  2040
    SO2 0.975d0      # 97.5% as SO2, 2.5% as SO4 # Indata is kg(SO2)
    SO4 0.0375d0     # 0.025 * 96/64
    xxx 0 To close this data set




'/cluster/projects/nn9188k/OsloCTM3/EMIS/GAINS_LRTAP_v2_1/LRTAP_Baseline_v5_NH3_2040_CTM.nc'
  401    1.0000d+00  ZP1   99  9999  AGR   2    0    0    0   'AGR'  2040
    NH3 1.d0
    xxx 0 To close this data set

'/cluster/projects/nn9188k/OsloCTM3/EMIS/GAINS_LRTAP_v2_1/LRTAP_Baseline_v5_NH3_2040_CTM.nc'
  401    1.0000d+00  ZP1   99  9999  ENE   2    0    0    0   'ENE'  2040
    NH3 1.d0
    xxx 0 To close this data set

'/cluster/projects/nn9188k/OsloCTM3/EMIS/GAINS_LRTAP_v2_1/LRTAP_Baseline_v5_NH3_2040_CTM.nc'
  401    1.0000d+00  ZP1   99  9999  IND   2    0    0    0   'IND'  2040
    NH3 1.d0
    xxx 0 To close this data set

'/cluster/projects/nn9188k/OsloCTM3/EMIS/GAINS_LRTAP_v2_1/LRTAP_Baseline_v5_NH3_2040_CTM.nc'
  401    1.0000d+00  ZP1   99  9999  TRA   2    0    0    0   'TRA'  2040
    NH3 1.d0
    xxx 0 To close this data set

'/cluster/projects/nn9188k/OsloCTM3/EMIS/GAINS_LRTAP_v2_1/LRTAP_Baseline_v5_NH3_2040_CTM.nc'
  401    1.0000d+00  ZP1   99  9999  RCO   2    0    0    0   'RCO'  2040
    NH3 1.d0
    xxx 0 To close this data set

'/cluster/projects/nn9188k/OsloCTM3/EMIS/GAINS_LRTAP_v2_1/LRTAP_Baseline_v5_NH3_2040_CTM.nc'
  401    1.0000d+00  ZP1   99  9999  WAS   2    0    0    0   'WAS'  2040
    NH3 1.d0
    xxx 0 To close this data set





'/cluster/projects/nn9188k/OsloCTM3/EMIS/GAINS_LRTAP_v2_1/LRTAP_Baseline_v5_VOC_2040_CTM.nc'
  401    1.0000d+00  ZP1   99  9999  AGR   0    0    0    0   'AGR'    2040
     C2H4 0.118076d0
     C2H6 0.044981d0
     C3H6 0.047793d0
     C3H8 0.012651d0
    C4H10 0.004232d0
    C6H14 0.023770d0 # hexanes_and_higher_alkanes
     CH2O 0.099802d0
   CH3CHO 0.044949d0 # other_alkanals
    C6HXR 0.114342d0 # other_aromatics + benzene + xylene + trimethyl_benzenes + toluene
 Tolmatic 0.056227d0 # other_aromatics + toluene
  Benzene 0.032330d0 # benzene
C6HXR_SOA 0.005623d0 # xylene + trimethyl_benzenes
  ACETONE 0.056301d0 # ketones
    xxx 0 To close this data set

'/cluster/projects/nn9188k/OsloCTM3/EMIS/GAINS_LRTAP_v2_1/LRTAP_Baseline_v5_VOC_2040_CTM.nc'
  401    1.0000d+00  ZP1   99  9999  RCO   0    0    0    0   'RCO'    2040
     C2H4 0.155149d0
     C2H6 0.073554d0
     C3H6 0.069012d0
     C3H8 0.027796d0
    C4H10 0.018122d0
    C6H14 0.012318d0 # hexanes_and_higher_alkanes
     CH2O 0.015754d0
   CH3CHO 0.026678d0 # other_alkanals
    C6HXR 0.203424d0 # other_aromatics + benzene + xylene + trimethyl_benzenes + toluene
 Tolmatic 0.049554d0 # other_aromatics + toluene
  Benzene 0.098485d0 # benzene
C6HXR_SOA 0.012492d0 # xylene + trimethyl_benzenes
  ACETONE 0.006668d0 # ketones
    xxx 0 To close this data set

'/cluster/projects/nn9188k/OsloCTM3/EMIS/GAINS_LRTAP_v2_1/LRTAP_Baseline_v5_VOC_2040_CTM.nc'
  401    1.0000d+00  ZP1   99  9999  ENE   0    0    0    0   'ENE'    2040
     C2H4 0.004727d0
     C2H6 0.008916d0
     C3H6 0.004727d0
     C3H8 0.068035d0
    C4H10 0.179398d0
    C6H14 0.125799d0 # hexanes_and_higher_alkanes
     CH2O 0.090846d0
   CH3CHO 0.007286d0 # other_alkanals
    C6HXR 0.401163d0 # other_aromatics + benzene + xylene + trimethyl_benzenes + toluene
 Tolmatic 0.129569d0 # other_aromatics + toluene
  Benzene 0.076768d0 # benzene
C6HXR_SOA 0.147551d0 # xylene + trimethyl_benzenes
  ACETONE 0.013332d0 # ketones
    xxx 0 To close this data set

'/cluster/projects/nn9188k/OsloCTM3/EMIS/GAINS_LRTAP_v2_1/LRTAP_Baseline_v5_VOC_2040_CTM.nc'
  401    1.0000d+00  ZP1   99  9999  IND   0    0    0    0   'IND'    2040
     C2H4 0.006830d0
     C2H6 0.012945d0
     C3H6 0.006830d0
     C3H8 0.061547d0
    C4H10 0.159148d0
    C6H14 0.144157d0 # hexanes_and_higher_alkanes
     CH2O 0.073887d0
   CH3CHO 0.005304d0 # other_alkanals
    C6HXR 0.474994d0 # other_aromatics + benzene + xylene + trimethyl_benzenes + toluene
 Tolmatic 0.155762d0 # other_aromatics + toluene
  Benzene 0.069447d0 # benzene
C6HXR_SOA 0.201152d0 # xylene + trimethyl_benzenes
  ACETONE 0.009706d0 # ketones
    xxx 0 To close this data set

'/cluster/projects/nn9188k/OsloCTM3/EMIS/GAINS_LRTAP_v2_1/LRTAP_Baseline_v5_VOC_2040_CTM.nc'
  401    1.0000d+00  ZP1   99  9999  SLV   0    0    0    0   'SLV'    2040
    C6H14 0.646855d0 # hexanes_and_higher_alkanes
    C6HXR 0.409190d0 # other_aromatics + benzene + xylene + trimethyl_benzenes + toluene
 Tolmatic 0.202537d0 # other_aromatics + toluene
C6HXR_SOA 0.175832d0 # xylene + trimethyl_benzenes
  ACETONE 0.145408d0 # ketones
    xxx 0 To close this data set
    
'/cluster/projects/nn9188k/OsloCTM3/EMIS/GAINS_LRTAP_v2_1/LRTAP_Baseline_v5_VOC_2040_CTM.nc'
  401    1.0000d+00  ZP1   99  9999  TRA   0    0    0    0   'TRA'    2040
     C2H4 0.067942d0
     C2H6 0.014170d0
     C3H6 0.023384d0
     C3H8 0.012650d0
    C4H10 0.163158d0
    C6H14 0.205941d0 # hexanes_and_higher_alkanes
     CH2O 0.007090d0
   CH3CHO 0.005334d0 # other_alkanals
    C6HXR 0.475389d0 # other_aromatics + benzene + xylene + trimethyl_benzenes + toluene
 Tolmatic 0.210974d0 # other_aromatics + toluene
  Benzene 0.034991d0 # benzene
C6HXR_SOA 0.184757d0 # xylene + trimethyl_benzenes
  ACETONE 0.005551d0 # ketones
    xxx 0 To close this data set

'/cluster/projects/nn9188k/OsloCTM3/EMIS/GAINS_LRTAP_v2_1/LRTAP_Baseline_v5_VOC_2040_CTM.nc'
  401    1.0000d+00  ZP1   99  9999  WAS   0    0    0    0   'WAS'    2040
     C2H4 0.112263d0
     C2H6 0.066575d0
     C3H6 0.047351d0
     C3H8 0.046878d0
    C4H10 0.081629d0
    C6H14 0.108925d0 # hexanes_and_higher_alkanes
     CH2O 0.008611d0
   CH3CHO 0.015939d0 # other_alkanals
    C6HXR 0.206489d0 # other_aromatics + benzene + xylene + trimethyl_benzenes + toluene
 Tolmatic 0.073160d0 # other_aromatics + toluene
  Benzene 0.063414d0 # benzene
C6HXR_SOA 0.036018d0 # xylene + trimethyl_benzenes
  ACETONE 0.011381d0 # ketones
    xxx 0 To close this data set

'/cluster/projects/nn9188k/OsloCTM3/EMIS/GAINS_LRTAP_v2_1/LRTAP_Baseline_v5_VOC_2040_CTM.nc'
  401    1.0000d+06  ZP1   99  9999  SHI   0    2    0    0   'SHI'    2040
     C2H4 0.151333d0
     C2H6 0.006936d0
     C3H6 0.165814d0
     C3H8 0.019240d0
    C4H10 0.020355d0
    C6H14 0.179447d0 # hexanes_and_higher_alkanes
    C6HXR 0.151600d0 # other_aromatics + benzene + xylene + trimethyl_benzenes + toluene
 Tolmatic 0.004112d0 # other_aromatics + toluene
  Benzene 0.067414d0 # benzene
C6HXR_SOA 0.055248d0 # xylene + trimethyl_benzenes
    xxx 0 To close this data set






'/cluster/projects/nn9188k/OsloCTM3/EMIS/GAINS_LRTAP_v2_1/LRTAP_Baseline_v5_BC_2040_CTM_fossil.nc'
  401    1.d0  ZP1   99  9999  ENE   2    0    0    0   'ENE'  2040
    bcFF1fob 0.8d0
    bcFF1fil 0.2d0
    xxx 0 To close this data set

'/cluster/projects/nn9188k/OsloCTM3/EMIS/GAINS_LRTAP_v2_1/LRTAP_Baseline_v5_BC_2040_CTM_fossil.nc'
  401    1.d0  ZP1   99  9999  IND   2    0    0    0   'IND'  2040
    bcFF1fob 0.8d0
    bcFF1fil 0.2d0
    xxx 0 To close this data set

'/cluster/projects/nn9188k/OsloCTM3/EMIS/GAINS_LRTAP_v2_1/LRTAP_Baseline_v5_BC_2040_CTM_fossil.nc'
  401    1.d0  ZP1   99  9999  TRA   2    0    0    0   'TRA'  2040
    bcFF1fob 0.8d0
    bcFF1fil 0.2d0
    xxx 0 To close this data set

'/cluster/projects/nn9188k/OsloCTM3/EMIS/GAINS_LRTAP_v2_1/LRTAP_Baseline_v5_BC_2040_CTM_fossil.nc'
  401    1.d0  ZP1   99  9999  RCO   2    0    0    0   'RCO'  2040
    bcFF1fob 0.8d0
    bcFF1fil 0.2d0
    xxx 0 To close this data set

'/cluster/projects/nn9188k/OsloCTM3/EMIS/GAINS_LRTAP_v2_1/LRTAP_Baseline_v5_BC_2040_CTM_fossil.nc'
  401    1.d0  ZP1   99  9999  WAS   2    0    0    0   'WAS'  2040
    bcFF1fob 0.8d0
    bcFF1fil 0.2d0
    xxx 0 To close this data set

'/cluster/projects/nn9188k/OsloCTM3/EMIS/GAINS_LRTAP_v2_1/LRTAP_Baseline_v5_BC_2040_CTM_fossil.nc'
  401    1.d0  ZP1   99  9999  SHI   2    0    0    0   'SHI'  2040
    bcFF1fob 0.8d0
    bcFF1fil 0.2d0
    xxx 0 To close this data set







'/cluster/projects/nn9188k/OsloCTM3/EMIS/GAINS_LRTAP_v2_1/LRTAP_Baseline_v5_BC_2040_CTM_solid_biofuel.nc'
  401   1.6d0  ZP1   99  9999  ENE   2    0    0    0   'ENE'  2040
    bcBF1fob 0.8d0
    bcBF1fil 0.2d0
    xxx 0 To close this data set

'/cluster/projects/nn9188k/OsloCTM3/EMIS/GAINS_LRTAP_v2_1/LRTAP_Baseline_v5_BC_2040_CTM_solid_biofuel.nc'
  401   1.6d0  ZP1   99  9999  IND   2    0    0    0   'IND'  2040
    bcBF1fob 0.8d0
    bcBF1fil 0.2d0
    xxx 0 To close this data set

'/cluster/projects/nn9188k/OsloCTM3/EMIS/GAINS_LRTAP_v2_1/LRTAP_Baseline_v5_BC_2040_CTM_solid_biofuel.nc'
  401   1.6d0  ZP1   99  9999  TRA   2    0    0    0   'TRA'  2040
    bcBF1fob 0.8d0
    bcBF1fil 0.2d0
    xxx 0 To close this data set

'/cluster/projects/nn9188k/OsloCTM3/EMIS/GAINS_LRTAP_v2_1/LRTAP_Baseline_v5_BC_2040_CTM_solid_biofuel.nc'
  401   1.6d0  ZP1   99  9999  RCO   2    0    0    0   'RCO'  2040
    bcBF1fob 0.8d0
    bcBF1fil 0.2d0
    xxx 0 To close this data set

'/cluster/projects/nn9188k/OsloCTM3/EMIS/GAINS_LRTAP_v2_1/LRTAP_Baseline_v5_BC_2040_CTM_solid_biofuel.nc'
  401   1.6d0  ZP1   99  9999  WAS   2    0    0    0   'WAS'  2040
    bcBF1fob 0.8d0
    bcBF1fil 0.2d0
    xxx 0 To close this data set

'/cluster/projects/nn9188k/OsloCTM3/EMIS/GAINS_LRTAP_v2_1/LRTAP_Baseline_v5_BC_2040_CTM_solid_biofuel.nc'
  401   1.6d0  ZP1   99  9999  SHI   2    0    0    0   'SHI'  2040
    bcBF1fob 0.8d0
    bcBF1fil 0.2d0
    xxx 0 To close this data set






'/cluster/projects/nn9188k/OsloCTM3/EMIS/GAINS_LRTAP_v2_1/LRTAP_Baseline_v5_OC_2040_CTM_fossil.nc'
  401   1.6d0  ZP1   99  9999  ENE   2    0    0    0   'ENE'  2040
    omFF1fob 0.5d0
    omFF1fil 0.5d0
    xxx 0 To close this data set

'/cluster/projects/nn9188k/OsloCTM3/EMIS/GAINS_LRTAP_v2_1/LRTAP_Baseline_v5_OC_2040_CTM_fossil.nc'
  401   1.6d0  ZP1   99  9999  IND   2    0    0    0   'IND'  2040
    omFF1fob 0.5d0
    omFF1fil 0.5d0
    xxx 0 To close this data set

'/cluster/projects/nn9188k/OsloCTM3/EMIS/GAINS_LRTAP_v2_1/LRTAP_Baseline_v5_OC_2040_CTM_fossil.nc'
  401   1.6d0  ZP1   99  9999  TRA   2    0    0    0   'TRA'  2040
    omFF1fob 0.5d0
    omFF1fil 0.5d0
    xxx 0 To close this data set

'/cluster/projects/nn9188k/OsloCTM3/EMIS/GAINS_LRTAP_v2_1/LRTAP_Baseline_v5_OC_2040_CTM_fossil.nc'
  401   1.6d0  ZP1   99  9999  RCO   2    0    0    0   'RCO'  2040
    omFF1fob 0.5d0
    omFF1fil 0.5d0
    xxx 0 To close this data set

'/cluster/projects/nn9188k/OsloCTM3/EMIS/GAINS_LRTAP_v2_1/LRTAP_Baseline_v5_OC_2040_CTM_fossil.nc'
  401   1.6d0  ZP1   99  9999  WAS   2    0    0    0   'WAS'  2040
    omFF1fob 0.5d0
    omFF1fil 0.5d0
    xxx 0 To close this data set

'/cluster/projects/nn9188k/OsloCTM3/EMIS/GAINS_LRTAP_v2_1/LRTAP_Baseline_v5_OC_2040_CTM_fossil.nc'
  401   1.6d0  ZP1   99  9999  SHI   2    0    0    0   'SHI'  2040
    omFF1fob 0.5d0
    omFF1fil 0.5d0
    xxx 0 To close this data set





'/cluster/projects/nn9188k/OsloCTM3/EMIS/GAINS_LRTAP_v2_1/LRTAP_Baseline_v5_OC_2040_CTM_solid_biofuel.nc'
  401   1.6d0  ZP1   99  9999  ENE   2    0    0    0   'ENE'  2040
    omBF1fob 0.5d0
    omBF1fil 0.5d0
    xxx 0 To close this data set

'/cluster/projects/nn9188k/OsloCTM3/EMIS/GAINS_LRTAP_v2_1/LRTAP_Baseline_v5_OC_2040_CTM_solid_biofuel.nc'
  401   1.6d0  ZP1   99  9999  IND   2    0    0    0   'IND'  2040
    omBF1fob 0.5d0
    omBF1fil 0.5d0
    xxx 0 To close this data set

'/cluster/projects/nn9188k/OsloCTM3/EMIS/GAINS_LRTAP_v2_1/LRTAP_Baseline_v5_OC_2040_CTM_solid_biofuel.nc'
  401   1.6d0  ZP1   99  9999  TRA   2    0    0    0   'TRA'  2040
    omBF1fob 0.5d0
    omBF1fil 0.5d0
    xxx 0 To close this data set

'/cluster/projects/nn9188k/OsloCTM3/EMIS/GAINS_LRTAP_v2_1/LRTAP_Baseline_v5_OC_2040_CTM_solid_biofuel.nc'
  401   1.6d0  ZP1   99  9999  RCO   2    0    0    0   'RCO'  2040
    omBF1fob 0.5d0
    omBF1fil 0.5d0
    xxx 0 To close this data set

'/cluster/projects/nn9188k/OsloCTM3/EMIS/GAINS_LRTAP_v2_1/LRTAP_Baseline_v5_OC_2040_CTM_solid_biofuel.nc'
  401   1.6d0  ZP1   99  9999  WAS   2    0    0    0   'WAS'  2040
    omBF1fob 0.5d0
    omBF1fil 0.5d0
    xxx 0 To close this data set

'/cluster/projects/nn9188k/OsloCTM3/EMIS/GAINS_LRTAP_v2_1/LRTAP_Baseline_v5_OC_2040_CTM_solid_biofuel.nc'
  401   1.6d0  ZP1   99  9999  SHI   2    0    0    0   'SHI'  2040
    omBF1fob 0.5d0
    omBF1fil 0.5d0
    xxx 0 To close this data set











'/cluster/projects/nn9188k/OsloCTM3/EMIS/POET/oceans.co.nc'
  601    1.0000d+00  1x1   99  9999  OCE   1    1    0    0   'oceans'  9999
    CO 1.d0         # Oceanic emissions not included in MEGAN
    xxx 0 To close this data set
'/cluster/projects/nn9188k/OsloCTM3/EMIS/POET/oceans.c2h4.nc'
  601    1.0000d+00  1x1   99  9999  OCE   1    1    0    0   'oceans'  9999
    C2H4 1.d0         # Oceanic emissions not included in MEGAN
    xxx 0 To close this data set
'/cluster/projects/nn9188k/OsloCTM3/EMIS/POET/oceans.c2h6.nc'
  601    1.0000d+00  1x1   99  9999  OCE   1    1    0    0   'oceans'  9999
    C2H6 1.d0         # Oceanic emissions not included in MEGAN
    xxx 0 To close this data set
'/cluster/projects/nn9188k/OsloCTM3/EMIS/POET/oceans.c3h6.nc'
  601    1.0000d+00  1x1   99  9999  OCE   1    1    0    0   'oceans'  9999
    C3H6 1.d0         # Oceanic emissions not included in MEGAN
    xxx 0 To close this data set
'/cluster/projects/nn9188k/OsloCTM3/EMIS/POET/oceans.c3h8.nc'
  601    1.0000d+00  1x1   99  9999  OCE   1    1    0    0   'oceans'  9999
    C3H8 1.d0         # Oceanic emissions not included in MEGAN
    xxx 0 To close this data set


'/cluster/projects/nn9188k/OsloCTM3/EMIS/NH3/NH3geia1997.nc'
  601    1.0000d+00  1x1   99  9999  NAT   0    0    0    0   'emiss_wilan'  9999
    NH3  1.d0
    xxx 0 To close this data set
'/cluster/projects/nn9188k/OsloCTM3/EMIS/NH3/NH3geia1997.nc'
  601    1.0000d+00  1x1   99  9999  OCE   0    0    0    0   'emiss_oce'  9999
    NH3  1.d0
    xxx 0 To close this data set

'/cluster/projects/nn9188k/OsloCTM3/EMIS/SULFUR/H2Ssol.1x1'
  551    1.0000d+00  1x1   99  9999  NAT   1    1    0    0   'H2S_soil'  9999
    H2S 1.d0
    xxx 0 To close this data set


'end2D' 'end2D' -------------------------------------------------------------
-3D-- Emissions 3-D ---------------------------------------------------------
filename / description
  ID     SCALE       RES MONTH YEAR  CAT TYPE UNIT DIURN DATASET_NAME SCENYEAR

'end3D' 'end3D' -------------------------------------------------------------
-STV- Used for short time variations; only one species per field ------------
format(char)/name for 2d-variable/tracer info

'/cluster/projects/nn9188k/OsloCTM3/EMIS/SULFUR/DMSconc_Kettle2.1x1'
  551    1.0000d+00  1x1   99  9999  NAT   2   -1    0   'DMSseaconc'  9999
    DMS     # Unit is nmol*m2/L, handeled by read-in

'/cluster/projects/nn9188k/OsloCTM3/EMIS/SULFUR/contineous_volc.1x1'  
  554    1.0000d+00  1x1   99  9999  NAT   2   -1    0   '---' 9999
    SO2     # Unit is kg/year, changed to kg/s in read-in

'Indata_CTM3/oceanemis/'
  555    1.0000d+00  HLF   99  9999  OCN   0   -1    0   '---'  9999
  ---   #This section just turns on the OC oceanic emissions

'DEAD_Mineral_Dust_Mobilisation_Dataset_Name'
  556    2.74925d-04  HLF   99  9999  NAT   0   -1    0   'mbl_bsn_fct'  9999
  ---   #This section sets mobilisation map name and fudge factor for DUST

'Indata_CTM3/MEGAN/'
  557    1.00000d+00  HLF   99  9999  BIO   0   -1    0   '---'  9999
  ---   #This section defines the use of MEGAN and sets path to MEGAN datasets

-END- -END-  ----------------------------------------------------------------

-BBB- Used for biomass burning - may list several species -------------------
filename / description
  ID     SCALE       RES MONTH YEAR  CAT TYPE UNIT DIURN DATASET_NAME
'/cluster/projects/nn9188k/OsloCTM3/EMIS/GFAS4HTAP3/daily_orig/'
  576    1.0000d-00  QRT   99  9999  NAT   0   -1    0   'biomass_burning'
  #CTMname    Fileprefix      DatasetName      Scaling
   'CO'       'CO'             'CO'            1.0000d0
   'NO'       'NOx'            'NOx'           0.9000d0
   'NO2'      'NOx'            'NOx'           0.1533d0
   'CH4'      'CH4'            'CH4'           0.0000d0
   'C2H4'     'C2H4'           'C2H4'          1.0000d0
   'C2H6'     'C2H6'           'C2H6'          1.0000d0
   'C3H6'     'C3H6'           'C3H6'          1.0000d0
   'C6H14'    'Higher_Alkanes' 'Higher_Alkanes' 1.0000d0
   'C6HXR'    'C8H10'          'C8H10'         1.0000d0
   'Tolmatic' 'C7H8'           'C7H8'          1.0000d0
   'CH2O'     'CH2O'           'CH2O'          1.0000d0
   'CH3CHO'   'C2H4O'          'C2H4O'         1.0000d0
   'ISOPRENE' 'C5H8'           'C5H8'          1.0000d0
   'C3H8'     'C3H8'           'C3H8'          1.0000d0
   'ACETONE'  'C3H6O'          'C3H6O'         1.0000d0
   'NH3'      'NH3'            'NH3'           1.0000d0
   'SO2'      'SO2'            'SO2'           0.9750d0
   'SO4'      'SO2'            'SO2'           0.0375d0
   'bcBB1fob' 'BC'             'BC'            0.8000d0
   'bcBB1fil' 'BC'             'BC'            0.2000d0
   'omBB1fob' 'OC'             'OC'            1.3000d0
   'omBB1fil' 'OC'             'OC'            1.3000d0
   '---'      '---'            '---'           0.0000d0
'endFF' 'endFF'  -------------------------------------------------------------


==============================================================================
DESCRIPTION OF FILE SETTINGS
==============================================================================
----- Variables to set above -----
ID:    ID number to control read-in, connected to the file structure
SCALE: Dataset scaling factor. No scaling when 1.d0.
RES:   Resolution of input data (character)
       1x1 = 1x1 degree, HLF = half; 0.5x0.5, ZP1 = zero point 1; 0.1:0.1, QRT=0.25x0.25
MONTH: Month which the emissions apply for (99 = all months)
YEAR:  Year which the emissions apply for (9999 = all years)
CAT:   Category of the emissions (for diagnostics)
TYPE:  Read into ETYP
       0: Use data as is
       1: Data is per cm2, multiply with area (m2)*1.d4
       2: Data is per m2, multiply with area (m2)
UNIT:  Read into EUNIT
       0: kg/s (or kg/area/s when ETYP=1,2)
       1: molec/s (or molec/area/s when ETYP=1,2)
       2: kg/y (or kg/area/y when ETYP=1,2)
       3: kg/month (or kg/area/month when ETYP=1,2)
DIURN: Flag for diurnal variation, local hour or based on 2D field.
       0: No diurnal variation
       1: RETRO variations (TNO)
       2: +50% from 8am to 7pm, -50% from 8pm to 7am (e.g. for BCOC)
       3: Scale with both sunlight and temperature
       4: Scale with sunlight
       5: Scale with heating degree day (HDD)
VERT:  Distribute 2D emissions on a few layers
       Alt 0-16/16-41/41-77/77-128
       1: 0.250/0.125/0.125/0.500  (typical power/industrial combustion)
       2: 0.600/0.200/0.200/0.000  (typical residential heating)
       3: 0.300/0.400/0.300/0.000  (typical ships)
DATASET_NAME: Name of dataset (e.g. in netCDF files).
SPECIES: The name of the species to use the listed dataset.
SCALING: Separate scaling factor for the listed species.
         Used in addition to SCALE above, which applies for the dataset.
           Normal usage:
         If the units of the input data on file is other than molecules
         per time and/or area, you have to scale the data to correct for
         differences in molecular mass.
         If input is molecules, you should *not* scale with molecular mass.

         If you specify a category not on file, the program will stop.


EDGAR category definitios:
http://edgar.jrc.ec.europa.eu/methodology.php
